InboundTrucks  = 50;
OutboundTrucks = 50;
InboundDoors   = 8;
OutboundDoors  = 8;
ReleaseTime    = [17,72,108,102,97,8,32,15,63,97,57,60,83,48,100,26,12,62,3,114,106,49,55,77,97,98,0,89,57,34,92,102,29,75,120,13,115,40,3,2,3,83,69,1,120,112,48,87,27,54];
UnloadTime     = [35,11,34,34,16,12,27,22,35,15,23,33,21,28,30,34,22,34,28,16,29,11,10,33,32,33,25,32,32,30,29,33,16,26,33,29,14,10,28,13,30,23,31,14,13,18,23,28,12,27];
LoadTime       = [17,7,14,16,10,17,6,9,8,11,5,18,15,11,9,19,11,6,6,16,18,10,8,16,11,6,7,12,16,20,5,19,6,9,9,8,20,13,13,8,5,12,8,20,11,16,8,7,15,15];
TransferTime   = [| 3,0,0,2,0,0,1,0,0,4,0,0,2,0,0,0,0,0,4,0,0,3,0,0,5,0,0,5,0,0,0,0,0,4,0,0,5,8,0,5,0,0,5,0,0,3,0,0,2,0 | 0,2,0,0,1,0,0,3,0,0,0,6,0,1,0,0,3,0,0,0,0,0,3,0,0,3,12,6,0,0,0,2,0,0,1,0,0,5,0,0,0,6,0,0,0,0,0,0,0,3 | 0,0,5,0,11,2,0,0,1,0,0,1,9,0,2,0,0,1,0,9,4,0,0,4,0,0,4,0,0,4,0,0,2,0,0,0,0,0,1,0,0,3,0,0,0,0,0,5,0,0 | 5,0,0,3,0,0,3,0,0,1,0,0,0,5,0,2,0,0,5,0,0,3,0,0,0,0,0,5,0,0,0,0,0,4,0,0,2,0,0,0,0,0,4,0,0,0,0,0,1,0 | 0,2,0,0,0,11,0,0,0,0,4,0,0,3,0,0,0,0,0,2,12,0,4,0,0,3,0,0,0,0,0,0,0,0,0,0,0,4,0,9,1,0,12,4,0,0,0,0,0,3 | 0,0,5,0,7,3,0,0,0,0,0,4,0,0,2,0,0,1,0,0,5,0,0,5,0,0,5,0,0,3,0,0,1,0,0,2,6,0,4,0,0,2,0,0,4,0,0,4,8,0 | 0,0,0,0,0,0,4,0,0,0,0,0,4,0,0,1,0,0,1,0,0,0,0,0,4,0,0,5,0,0,3,0,0,5,0,0,0,0,0,3,0,0,3,0,0,5,0,0,0,0 | 0,0,0,0,3,0,0,1,0,0,3,0,0,1,0,8,1,0,0,0,0,0,5,0,0,2,0,0,0,0,0,0,0,0,3,0,0,0,0,0,2,0,0,5,0,0,1,0,0,5 | 0,0,2,0,0,1,9,0,4,0,0,4,0,0,3,0,0,4,0,0,1,0,0,2,0,0,4,0,0,3,5,0,5,0,0,1,0,0,0,0,0,3,0,0,1,0,0,0,0,0 | 5,0,0,0,0,0,2,0,0,4,0,0,5,12,0,1,0,0,1,0,0,1,0,0,3,0,0,4,0,0,4,0,0,3,0,0,0,0,0,0,0,0,4,7,0,1,0,0,4,0 | 0,1,0,0,5,0,0,3,0,0,0,0,0,3,0,7,2,0,0,3,0,0,3,0,5,0,0,0,4,0,0,5,0,0,4,0,0,1,0,0,4,0,0,2,0,0,3,0,0,4 | 0,0,0,0,0,1,0,0,2,0,0,3,0,0,0,0,0,1,0,0,5,0,0,2,9,12,1,0,0,3,0,0,0,12,0,4,0,0,3,0,0,3,0,0,4,0,0,5,0,0 | 0,0,0,0,0,0,3,0,0,2,0,8,4,0,0,5,0,0,2,7,0,3,0,0,3,0,0,2,0,0,4,0,0,0,0,5,1,0,0,4,10,0,3,0,10,1,0,0,0,0 | 0,0,0,0,5,0,0,0,9,0,5,0,0,3,0,0,3,0,0,0,0,0,2,0,0,2,0,0,5,0,0,1,0,0,2,0,0,1,0,0,0,0,0,2,0,0,2,0,0,1 | 0,0,5,11,0,1,0,0,3,0,0,0,0,0,4,0,0,3,0,0,5,0,0,3,0,0,2,0,0,5,0,0,4,0,0,2,0,0,1,0,0,3,0,0,5,0,0,5,5,0 | 3,0,0,2,0,0,1,0,0,1,0,0,0,0,0,4,0,0,4,6,0,0,0,0,0,0,0,3,0,0,1,0,0,0,0,0,5,0,0,0,0,11,0,0,0,3,0,5,0,0 | 0,5,0,0,1,0,0,1,0,0,2,0,0,2,0,0,5,0,0,2,0,0,0,0,0,4,0,0,2,0,0,1,0,0,0,0,0,2,0,0,1,0,0,4,0,0,3,0,0,0 | 0,0,0,0,0,1,0,0,4,0,0,3,0,0,1,0,0,5,0,0,1,0,0,0,0,0,2,0,0,4,0,0,5,0,0,5,0,0,3,0,0,0,0,0,3,0,0,2,0,0 | 5,0,0,5,0,0,3,0,0,0,0,0,0,7,11,3,12,0,5,0,0,5,0,0,2,0,0,0,0,0,2,0,0,3,0,9,5,0,0,2,9,0,4,0,5,3,0,0,4,0 | 0,5,0,0,0,0,0,4,0,0,5,0,0,5,0,0,2,0,0,5,0,0,5,0,0,3,0,0,0,0,0,2,0,0,1,0,9,1,0,0,4,0,0,4,0,0,3,0,0,1 | 0,0,5,8,0,0,0,0,1,0,0,0,0,0,0,0,0,3,0,0,3,0,0,1,0,0,0,0,0,0,0,8,2,0,0,3,0,0,2,0,0,3,0,0,2,11,0,1,0,0 | 3,0,0,4,0,0,0,0,0,0,0,0,0,0,0,1,0,0,4,0,0,5,0,0,1,0,0,2,0,0,4,0,0,3,0,0,2,0,0,3,0,0,2,0,0,0,0,0,4,0 | 0,5,0,0,3,0,0,3,0,0,4,0,0,1,0,0,2,0,0,5,0,0,4,0,8,4,0,0,2,0,0,4,0,0,1,0,0,4,0,0,0,0,0,2,0,0,3,0,0,5 | 0,0,3,0,0,2,0,0,5,0,0,4,0,0,5,0,0,2,0,0,4,0,5,1,7,0,4,0,9,1,0,0,0,0,0,5,0,0,3,0,0,4,0,0,1,0,0,3,0,0 | 5,0,0,1,0,0,5,0,0,4,0,0,2,0,11,4,0,0,0,0,0,4,0,0,2,0,0,1,0,0,0,0,0,0,0,0,0,0,0,4,0,0,2,0,0,1,0,0,2,0 | 0,2,0,0,0,0,0,2,0,0,2,0,0,4,0,0,0,0,0,4,0,0,3,0,0,4,0,0,3,0,5,5,0,0,3,0,0,3,0,0,3,0,0,4,0,7,1,0,0,4 | 0,5,0,0,0,2,0,0,0,0,0,4,0,0,3,0,0,5,0,7,4,0,0,1,0,0,4,0,5,5,0,0,5,0,0,2,0,9,1,0,0,5,0,0,1,0,0,2,0,0 | 1,0,0,2,10,0,2,0,0,0,0,0,2,0,0,0,0,0,1,0,0,5,0,9,4,0,0,4,0,0,0,0,0,0,0,0,5,0,0,1,0,0,5,12,0,3,0,0,0,0 | 0,4,0,0,1,7,0,3,0,0,1,0,0,3,0,0,3,0,0,3,0,0,3,0,0,0,0,0,1,0,0,4,0,9,2,0,0,5,0,0,4,0,0,5,0,0,3,0,0,2 | 0,0,0,0,0,3,0,0,4,0,8,0,0,0,1,0,0,2,0,0,2,0,0,3,0,0,3,0,0,3,0,0,3,0,0,1,8,0,3,0,0,4,0,0,3,0,0,3,0,0 | 1,0,0,1,0,0,3,0,0,4,0,0,0,0,0,4,0,0,3,0,5,4,0,0,1,0,0,0,0,0,0,0,0,5,0,0,0,0,0,3,0,0,2,0,0,5,0,0,5,0 | 0,0,0,0,2,0,0,3,0,0,4,0,0,1,0,0,3,0,6,3,0,0,2,0,0,2,5,0,3,0,0,2,0,0,1,12,0,4,0,0,1,0,0,2,0,0,5,0,0,4 | 0,0,3,0,0,2,0,0,3,0,0,0,0,6,2,0,7,5,0,0,5,0,0,0,0,0,2,0,0,2,0,0,0,0,0,2,0,0,0,0,0,0,0,0,4,0,0,4,0,0 | 5,0,0,3,0,0,3,0,0,1,0,0,1,0,0,1,0,0,3,0,0,5,0,0,0,0,0,1,0,7,3,0,0,1,0,0,5,6,0,5,6,0,1,0,0,2,0,0,0,11 | 0,5,0,0,0,0,0,1,0,0,1,8,0,1,0,0,0,0,7,4,0,0,1,6,0,3,0,12,0,12,0,3,0,0,2,0,0,1,0,0,4,0,0,0,0,0,5,0,0,2 | 0,0,4,0,0,3,11,0,1,0,0,1,0,0,5,0,0,3,0,5,3,0,0,5,0,10,4,0,0,2,0,0,2,0,0,1,0,0,2,0,0,1,0,0,4,0,0,2,0,0 | 1,0,0,1,7,0,0,0,0,2,0,0,3,0,0,2,0,9,1,0,9,0,11,0,0,0,11,4,0,0,2,0,0,1,11,0,1,0,0,2,0,0,5,0,9,2,0,0,1,0 | 0,4,0,0,5,0,0,4,0,8,2,0,0,1,0,0,5,0,0,2,0,0,5,0,0,4,0,0,2,5,0,3,0,0,5,0,0,0,0,0,1,0,0,1,0,0,5,0,0,4 | 0,12,3,0,0,3,0,0,2,0,0,3,0,6,0,0,0,1,0,0,1,0,0,4,0,0,3,0,0,4,5,0,2,0,0,0,0,0,2,0,11,5,0,5,1,0,0,0,10,0 | 3,0,0,2,0,0,1,0,0,0,0,0,3,8,0,4,0,0,4,0,0,0,0,0,4,0,0,0,0,0,1,0,0,4,0,0,0,0,0,2,0,0,2,0,0,3,0,0,1,0 | 0,2,0,12,4,0,0,4,0,0,2,8,0,5,0,0,2,0,0,0,0,0,5,0,0,5,0,0,0,0,0,5,0,0,0,0,0,3,0,0,4,0,0,0,0,0,1,0,0,3 | 0,0,3,0,0,5,0,0,5,0,0,2,0,0,5,6,0,4,0,0,3,0,0,5,0,0,2,0,0,2,0,0,0,0,0,2,0,0,5,0,0,4,0,0,0,0,0,0,9,0 | 3,0,0,4,0,0,4,0,0,3,0,11,0,12,8,3,0,0,0,0,0,1,0,0,0,0,0,4,0,0,5,0,0,3,0,0,2,0,0,1,0,0,0,0,10,0,0,5,3,11 | 0,5,7,0,0,0,0,0,0,0,4,0,0,2,0,0,3,0,0,0,0,0,3,0,0,0,6,0,3,0,0,4,0,0,4,0,0,1,0,0,3,0,0,5,0,0,4,0,0,0 | 0,0,4,12,0,1,0,0,0,0,0,1,0,0,2,0,0,2,0,0,0,0,0,0,0,0,3,0,0,5,0,0,3,0,0,0,5,0,1,0,0,3,0,0,2,0,0,2,0,0 | 4,0,0,1,0,0,2,0,0,4,0,0,4,0,0,0,0,0,3,0,0,5,0,0,5,0,0,0,0,0,3,0,0,4,10,0,5,0,0,2,6,0,5,0,0,0,0,0,3,0 | 0,2,0,0,0,0,0,0,0,0,2,0,12,4,0,0,1,0,0,3,0,10,5,0,11,3,0,0,1,0,0,3,10,0,4,0,0,2,0,0,5,8,9,1,0,0,1,0,0,1 | 0,12,1,0,0,4,0,0,1,0,0,1,0,0,3,0,0,0,0,0,2,9,0,0,0,0,4,0,0,0,0,0,0,0,0,5,0,0,5,0,0,3,5,0,5,0,0,0,0,0 | 1,0,0,0,0,0,3,0,0,2,0,0,3,0,0,1,0,0,0,0,0,2,0,0,4,0,0,3,0,0,3,0,0,5,0,0,1,7,0,0,0,0,0,0,0,1,0,0,2,6 | 0,1,0,0,2,0,0,1,0,0,3,0,0,2,0,0,1,5,0,1,0,0,1,0,0,3,12,0,2,0,0,0,0,0,0,0,0,0,0,12,5,0,0,1,0,0,1,0,0,0 |];
